c
c start with comments
c
p cnf 27 36
-18 4 -19 17 -18 0
-17 -10 2 -2 18 0
22 6 0
-21 -25 17 0
10 24 -9 0
-21 9 3 0
-3 -23 18 16 -6 -5 0
-18 9 1 11 -10 0
11 -4 13 0
16 2 -11 -1 19 0
8 7 0
19 1 -3 3 3 0
-3 -18 -4 -25 -8 -14 0
20 -11 3 -26 12 0
-15 21 0
-6 -24 9 -13 -6 0
-11 21 26 -12 5 0
-9 -24 -17 0
-2 21 11 26 9 13 0
3 27 14 -19 0
7 9 -18 -24 0
-18 6 0
-15 18 -2 -19 -25 -23 0
22 -20 -8 -10 0
23 -1 23 0
-8 24 -25 23 -19 17 0
21 -19 -26 -21 0
-26 14 4 16 -20 0
-27 -16 8 -13 0
-14 22 19 -1 17 0
7 -26 -24 -10 0
19 8 -21 -25 0
-9 -20 25 -10 0
18 7 21 -7 5 10 0
-12 -3 -17 -25 -26 10 0
-5 -17 8 -3 11 0